NAME : P = NP
TYPE : TSP
DIMENSION : 52
EDGE_WEIGHT_TYPE : EUC_2D
NODE_COORD_SECTION
0 26 55
1 321 55
2 72 735
3 9 5
4 540 44
5 80 29
6 254 140
7 368 792
8 96 45
9 332 129
10 83 206
11 775 216
12 37 70
13 15 14
14 25 82
15 194 0
16 914 137
17 244 204
18 381 736
19 92 585
20 88 390
21 865 430
22 86 703
23 359 835
24 2 80
25 137 77
26 48 0
27 2 105
28 12 144
29 280 107
30 20 742
31 551 147
32 376 815
33 19 283
34 181 503
35 48 531
36 546 183
37 77 12
38 702 239
39 191 411
40 135 26
41 82 8
42 64 28
43 195 256
44 699 447
45 62 382
46 373 348
47 324 2
48 343 50
49 371 705
50 200 803
51 17 225